data/solutions/recovery/wellformed/intermediate/binding/wellformed_intermediate_instance41/72.sol
Elapsed time: 100.42
Upper bound: 263180.0
Planning weighted value: 1030884821.0
C[0]=263180.0
C[1]=263175.0
C[2]=263163.0
C[3]=263150.0
C[4]=263142.0
C[5]=263138.0
C[6]=263097.0
C[7]=263017.0
C[8]=262966.0
C[9]=262776.0
C[10]=262565.0
C[11]=0.0
y[0]=5
y[1]=6
y[2]=0
y[3]=9
y[4]=5
y[5]=5
y[6]=1
y[7]=10
y[8]=4
y[9]=2
y[10]=10
y[11]=5
y[12]=8
y[13]=4
y[14]=6
y[15]=4
y[16]=9
y[17]=6
y[18]=0
y[19]=10
y[20]=8
y[21]=7
y[22]=10
y[23]=2
y[24]=1
y[25]=9
y[26]=1
y[27]=0
y[28]=10
y[29]=0
y[30]=10
y[31]=10
y[32]=2
y[33]=8
y[34]=3
y[35]=4
y[36]=10
y[37]=9
y[38]=6
y[39]=0
y[40]=5
y[41]=5
y[42]=4
y[43]=4
y[44]=10
y[45]=10
y[46]=7
y[47]=7
y[48]=5
y[49]=5
y[50]=2
y[51]=7
y[52]=4
y[53]=9
y[54]=6
y[55]=9
y[56]=0
y[57]=2
y[58]=3
y[59]=8
y[60]=4
y[61]=2
y[62]=7
y[63]=10
y[64]=3
y[65]=6
y[66]=7
y[67]=1
y[68]=4
y[69]=6
y[70]=1
y[71]=9
y[72]=0
y[73]=10
y[74]=8
y[75]=7
y[76]=1
y[77]=5
y[78]=6
y[79]=5
y[80]=1
y[81]=1
y[82]=4
y[83]=3
y[84]=1
y[85]=5
y[86]=2
y[87]=6
y[88]=2
y[89]=3
y[90]=7
y[91]=2
y[92]=7
y[93]=8
y[94]=8
y[95]=9
y[96]=2
y[97]=9
y[98]=10
y[99]=7
y[100]=10
y[101]=6
y[102]=4
y[103]=9
y[104]=2
y[105]=8
y[106]=10
y[107]=0
y[108]=3
y[109]=7
y[110]=7
y[111]=0
y[112]=2
y[113]=1
y[114]=2
y[115]=0
y[116]=6
y[117]=4
y[118]=5
y[119]=6
y[120]=7
y[121]=1
y[122]=1
y[123]=6
y[124]=0
y[125]=6
y[126]=7
y[127]=9
y[128]=7
y[129]=7
y[130]=3
y[131]=3
y[132]=5
y[133]=6
y[134]=7
y[135]=8
y[136]=6
y[137]=4
y[138]=4
y[139]=8
y[140]=7
y[141]=1
y[142]=3
y[143]=1
y[144]=5
y[145]=3
y[146]=0
y[147]=8
y[148]=3
y[149]=6
y[150]=10
y[151]=4
y[152]=8
y[153]=4
y[154]=8
y[155]=1
y[156]=3
y[157]=10
y[158]=1
y[159]=0
y[160]=10
y[161]=8
y[162]=10
y[163]=10
y[164]=2
y[165]=1
y[166]=4
y[167]=8
y[168]=8
y[169]=1
y[170]=5
y[171]=3
y[172]=6
y[173]=2
y[174]=3
y[175]=5
y[176]=8
y[177]=5
y[178]=9
y[179]=1
y[180]=9
y[181]=7
y[182]=9
y[183]=7
y[184]=0
y[185]=6
y[186]=4
y[187]=1
y[188]=3
y[189]=6
y[190]=1
y[191]=10
y[192]=4
y[193]=9
y[194]=9
y[195]=0
y[196]=10
y[197]=1
y[198]=8
y[199]=7
y[200]=10
y[201]=10
y[202]=0
y[203]=1
y[204]=0
y[205]=9
y[206]=0
y[207]=8
y[208]=3
y[209]=9
y[210]=8
y[211]=10
y[212]=5
y[213]=8
y[214]=5
y[215]=1
y[216]=6
y[217]=1
y[218]=2
y[219]=2
y[220]=2
y[221]=5
y[222]=2
y[223]=8
y[224]=4
y[225]=2
y[226]=7
y[227]=8
y[228]=6
y[229]=8
y[230]=8
y[231]=0
y[232]=6
y[233]=8
y[234]=2
y[235]=1
y[236]=8
y[237]=0
y[238]=10
y[239]=7
y[240]=3
y[241]=7
y[242]=5
y[243]=4
y[244]=1
y[245]=10
y[246]=3
y[247]=3
y[248]=5
y[249]=3
y[250]=8
y[251]=2
y[252]=3
y[253]=6
y[254]=7
y[255]=2
y[256]=9
y[257]=6
y[258]=1
y[259]=9
y[260]=0
y[261]=1
y[262]=0
y[263]=1
y[264]=9
y[265]=3
y[266]=2
y[267]=5
y[268]=5
y[269]=4
y[270]=1
y[271]=10
y[272]=10
y[273]=9
y[274]=7
y[275]=3
y[276]=2
y[277]=0
y[278]=0
y[279]=10
y[280]=4
y[281]=7
y[282]=5
y[283]=3
y[284]=4
y[285]=10
y[286]=9
y[287]=9
y[288]=7
y[289]=10
y[290]=0
y[291]=3
y[292]=3
y[293]=8
y[294]=2
y[295]=3
y[296]=2
y[297]=10
y[298]=3
y[299]=3
y[300]=7
y[301]=10
y[302]=9
y[303]=10
y[304]=4
y[305]=6
y[306]=4
y[307]=0
y[308]=2
y[309]=2
y[310]=8
y[311]=2
