data/solutions/recovery/wellformed/intermediate/binding/wellformed_intermediate_instance41/72.log

Log started (V12.6.3.0) Fri Apr 20 19:47:31 2018

New value for default parallel thread count: 1

Problem '/tmp/tmpfLWNbh.pyomo.lp' read.
Read time = 0.13 sec. (12.56 ticks)

Problem name         : /tmp/tmpfLWNbh.pyomo.lp
Objective sense      : Minimize
Variables            :    3758  [Nneg: 1,  Binary: 3744,  General Integer: 13]
Objective nonzeros   :       1
Linear constraints   :     650  [Less: 324,  Equal: 326]
  Nonzeros           :  930805
  RHS nonzeros       :     313

Variables            : Min LB: 0.000000         Max UB: 1.000000       
Objective nonzeros   : Min   : 1.000000         Max   : 1.000000       
Linear constraints   :
  Nonzeros           : Min   : 1.000000         Max   : 19298.00       
  RHS nonzeros       : Min   : 1.000000         Max   : 1.000000       
Tried aggregator 2 times.
MIP Presolve eliminated 586 rows and 3284 columns.
Aggregator did 11 substitutions.
Reduced MIP has 53 rows, 463 columns, and 935 nonzeros.
Reduced MIP has 462 binaries, 1 generals, 0 SOSs, and 0 indicators.
Presolve time = 0.03 sec. (57.53 ticks)
Found incumbent of value 648209.000000 after 0.07 sec. (79.21 ticks)
Probing time = 0.00 sec. (0.47 ticks)
Tried aggregator 1 time.
Reduced MIP has 53 rows, 463 columns, and 935 nonzeros.
Reduced MIP has 462 binaries, 1 generals, 0 SOSs, and 0 indicators.
Presolve time = 0.00 sec. (0.73 ticks)
Probing time = 0.00 sec. (0.47 ticks)
Clique table members: 42.
MIP emphasis: balance optimality and feasibility.
MIP search method: dynamic search.
Parallel mode: none, using 1 thread.
Root relaxation solution time = 0.00 sec. (0.97 ticks)

        Nodes                                         Cuts/
   Node  Left     Objective  IInf  Best Integer    Best Bound    ItCnt     Gap

*     0+    0                       648209.0000   255076.0000            60.65%
      0     0   263033.5455    20   648209.0000   263033.5455       92   59.42%
*     0+    0                       271362.0000   263033.5455             3.07%
      0     0   263034.0000    22   271362.0000       Cuts: 6      112    3.07%
*     0+    0                       269147.0000   263034.0000             2.27%
      0     0   263034.0000    27   269147.0000      Cuts: 20      153    2.27%
*     0+    0                       267447.0000   263034.0000             1.65%
*     0+    0                       266867.0000   263034.0000             1.44%
      0     2   263034.0000    16   266867.0000   263034.0000      153    1.44%
Elapsed time = 0.09 sec. (104.96 ticks, tree = 0.01 MB, solutions = 5)
*    10+   10                       266719.0000   263034.0000             1.38%
*    20+   20                       265849.0000   263034.0000             1.06%
*    40+   40                       265583.0000   263034.0000             0.96%
*    50+   50                       265565.0000   263034.0000             0.95%
*    90+   90                       265205.0000   263034.0000             0.82%
*   110+  105                       264803.0000   263034.0000             0.67%
*   120+  109                       264532.0000   263034.0000             0.57%
*   129   117      integral     0   264262.0000   263034.0000      823    0.46%
*   130+  116                       264141.0000   263034.0000             0.42%
*   160+  140                       263881.0000   263034.0000             0.32%
*   180+  158                       263834.0000   263034.0000             0.30%
*   200+  167                       263625.0000   263034.0000             0.22%
*   300+  261                       263542.0000   263034.0000             0.19%
*   486+  431                       263541.0000   263034.0000             0.19%
*   487+  429                       263486.0000   263034.0000             0.17%
    488   432   263034.0000    15   263486.0000   263034.0000     2415    0.17%
    489   433   263034.0000    17   263486.0000   263034.0000     2424    0.17%
    490   434   263034.0000    18   263486.0000   263034.0000     2432    0.17%
    491   435   263034.0000    17   263486.0000   263034.0000     2434    0.17%
    492   436   263034.0000    18   263486.0000   263034.0000     2439    0.17%
    493   436   263034.0000    17   263486.0000   263034.0000     2445    0.17%
    494   436   263034.0000    18   263486.0000   263034.0000     2447    0.17%
    495   436   263034.0000    17   263486.0000   263034.0000     2456    0.17%
    496   437   263034.0000    18   263486.0000   263034.0000     2471    0.17%
*   888+  425                       263463.0000   263034.0000             0.16%
*  1088+  489                       263451.0000   263034.0000             0.16%
*  1188+  530                       263432.0000   263034.0000             0.15%
   1588   847   263426.8571    11   263432.0000   263034.0000     6825    0.15%
Elapsed time = 1.10 sec. (1151.09 ticks, tree = 0.34 MB, solutions = 23)
* 10188+ 8486                       263428.0000   263034.0000             0.15%
* 10188+ 8039                       263391.0000   263034.0000             0.14%
  10273  8125   263173.0000    14   263391.0000   263034.0000    26247    0.14%
  10274  8126   263173.0000    14   263391.0000   263034.0000    26248    0.14%
  10275  8127   263173.0000    14   263391.0000   263034.0000    26249    0.14%
  10276  8128   263173.0000    14   263391.0000   263034.0000    26250    0.14%
  10277  8129   263173.0000    14   263391.0000   263034.0000    26251    0.14%
  10278  8130   263173.0000    14   263391.0000   263034.0000    26253    0.14%
  10279  8131   263173.0000    14   263391.0000   263034.0000    26254    0.14%
  10280  8132   263173.0000    14   263391.0000   263034.0000    26255    0.14%
  10281  8133   263183.5714    13   263391.0000   263034.0000    26259    0.14%
  10282  8132        cutoff         263391.0000   263034.0000    26260    0.14%
Elapsed time = 1.97 sec. (2105.28 ticks, tree = 3.34 MB, solutions = 25)
  24582 21234   263081.3000    16   263391.0000   263034.0000    56288    0.14%
  24583 21235   263081.3000    16   263391.0000   263034.0000    56289    0.14%
  24584 21236   263081.3000    16   263391.0000   263034.0000    56290    0.14%
  24585 21237   263081.3000    16   263391.0000   263034.0000    56291    0.14%
  24586 21238   263081.3000    16   263391.0000   263034.0000    56292    0.14%
  24587 21239   263081.3000    16   263391.0000   263034.0000    56293    0.14%
  24588 21240   263104.0000    13   263391.0000   263034.0000    56297    0.14%
  24589 21241   263104.0000    13   263391.0000   263034.0000    56298    0.14%
  24590 21242   263104.0000    14   263391.0000   263034.0000    56300    0.14%
  24591 21243   263104.0000    14   263391.0000   263034.0000    56301    0.14%
Elapsed time = 2.78 sec. (3059.49 ticks, tree = 8.46 MB, solutions = 25)
  38807 34021   263232.8750    14   263391.0000   263034.0000    86046    0.14%
  38808 34020        cutoff         263391.0000   263034.0000    86048    0.14%
  38809 34019        cutoff         263391.0000   263034.0000    86049    0.14%
  38810 34020   263034.0000    17   263391.0000   263034.0000    86051    0.14%
  38811 34021   263034.0000    18   263391.0000   263034.0000    86055    0.14%
  38812 34022   263034.0000    19   263391.0000   263034.0000    86061    0.14%
  38813 34023   263034.0000    18   263391.0000   263034.0000    86064    0.14%
  38814 34024   263034.0000    18   263391.0000   263034.0000    86066    0.14%
  38815 34025   263034.0000    18   263391.0000   263034.0000    86071    0.14%
  38816 34026   263034.0000    18   263391.0000   263034.0000    86073    0.14%
Elapsed time = 3.62 sec. (4014.28 ticks, tree = 13.92 MB, solutions = 25)
  53371 46997   263368.0000    10   263391.0000   263034.0000   116447    0.14%
  53372 46998   263368.0000    12   263391.0000   263034.0000   116449    0.14%
  53373 46999   263368.0000    12   263391.0000   263034.0000   116451    0.14%
  53374 47000   263368.0000    10   263391.0000   263034.0000   116452    0.14%
  53375 47001   263368.0000    12   263391.0000   263034.0000   116455    0.14%
  53376 47002   263368.0000    10   263391.0000   263034.0000   116456    0.14%
  53377 47001        cutoff         263391.0000   263034.0000   116458    0.14%
  53378 47002   263368.0000    10   263391.0000   263034.0000   116460    0.14%
  53379 47003   263368.0000    10   263391.0000   263034.0000   116461    0.14%
  53380 47004   263368.0000    10   263391.0000   263034.0000   116462    0.14%
Elapsed time = 4.44 sec. (4968.49 ticks, tree = 18.43 MB, solutions = 25)
  67725 59331   263034.0000    18   263391.0000   263034.0000   147814    0.14%
  67726 59332   263034.0000    19   263391.0000   263034.0000   147818    0.14%
  67727 59333   263034.0000    19   263391.0000   263034.0000   147819    0.14%
  67728 59334   263034.0000    19   263391.0000   263034.0000   147820    0.14%
  67729 59335   263069.8000    18   263391.0000   263034.0000   147823    0.14%
  67730 59336   263069.8000    18   263391.0000   263034.0000   147824    0.14%
  67731 59337   263069.8000    18   263391.0000   263034.0000   147826    0.14%
  67732 59338   263175.5556    16   263391.0000   263034.0000   147830    0.14%
  67733 59337        cutoff         263391.0000   263034.0000   147831    0.14%
  67734 59338   263201.5000    14   263391.0000   263034.0000   147834    0.14%
Elapsed time = 5.29 sec. (5922.77 ticks, tree = 22.76 MB, solutions = 25)
* 81852 68805      integral     0   263378.0000   263034.0000   175438    0.13%
* 81952+63887                       263349.0000   263034.0000             0.12%
* 81952+57571                       263307.0000   263034.0000             0.10%
  81952 57570   263310.5000    11   263307.0000   263034.0000   175634    0.10%
  81953 57571   263034.0000    18   263307.0000   263034.0000   175639    0.10%
  81954 57572   263034.0000    18   263307.0000   263034.0000   175643    0.10%
  81955 57573   263034.0000    18   263307.0000   263034.0000   175647    0.10%
  81956 57574   263034.0000    18   263307.0000   263034.0000   175648    0.10%
  81957 57575   263034.0000    18   263307.0000   263034.0000   175653    0.10%
  81958 57576   263034.0000    18   263307.0000   263034.0000   175654    0.10%
  81959 57577   263034.0000    18   263307.0000   263034.0000   175660    0.10%
  81960 57578   263034.0000    19   263307.0000   263034.0000   175662    0.10%
  81961 57579   263034.0000    19   263307.0000   263034.0000   175667    0.10%
Elapsed time = 6.17 sec. (6901.61 ticks, tree = 23.91 MB, solutions = 28)
  96844 70067   263034.0000    17   263307.0000   263034.0000   204610    0.10%
  96845 70068   263034.0000    17   263307.0000   263034.0000   204611    0.10%
  96846 70069   263034.0000    17   263307.0000   263034.0000   204615    0.10%
  96847 70070   263034.0000    17   263307.0000   263034.0000   204618    0.10%
  96848 70071   263034.0000    17   263307.0000   263034.0000   204621    0.10%
  96849 70072   263034.0000    17   263307.0000   263034.0000   204624    0.10%
  96850 70073   263034.0000    16   263307.0000   263034.0000   204625    0.10%
  96851 70074   263034.0000    17   263307.0000   263034.0000   204627    0.10%
  96852 70075   263034.0000    17   263307.0000   263034.0000   204630    0.10%
  96853 70076   263034.0000    17   263307.0000   263034.0000   204635    0.10%
Elapsed time = 7.00 sec. (7855.82 ticks, tree = 28.37 MB, solutions = 28)
 110729 81391   263115.8333    14   263307.0000   263034.0000   233642    0.10%
 110730 81390   263127.1250    14   263307.0000   263034.0000   233649    0.10%
 110731 81390   263115.8333    12   263307.0000   263034.0000   233652    0.10%
 110732 81391   263115.8333    14   263307.0000   263034.0000   233656    0.10%
 110733 81390    infeasible         263307.0000   263034.0000   233656    0.10%
 110734 81389   263142.1250    14   263307.0000   263034.0000   233663    0.10%
 110735 81390   263034.0000    20   263307.0000   263034.0000   233668    0.10%
 110736 81391   263034.0000    19   263307.0000   263034.0000   233670    0.10%
 110737 81392   263034.0000    20   263307.0000   263034.0000   233681    0.10%
 110738 81393   263034.0000    19   263307.0000   263034.0000   233684    0.10%
Elapsed time = 7.85 sec. (8810.33 ticks, tree = 32.40 MB, solutions = 28)
 123661 91500   263034.0000    17   263307.0000   263034.0000   263982    0.10%
 123662 91501   263034.0000    16   263307.0000   263034.0000   263983    0.10%
 123663 91502   263034.0000    17   263307.0000   263034.0000   263984    0.10%
 123664 91503   263034.0000    17   263307.0000   263034.0000   263986    0.10%
 123665 91504   263034.0000    16   263307.0000   263034.0000   263987    0.10%
 123666 91505   263034.0000    19   263307.0000   263034.0000   263992    0.10%
 123667 91506   263034.0000    19   263307.0000   263034.0000   263997    0.10%
 123668 91507   263131.9000    18   263307.0000   263034.0000   264003    0.10%
 123669 91508   263131.9000    19   263307.0000   263034.0000   264005    0.10%
*132741 93398      integral     0   263288.0000   263034.0000   284147    0.10%
*132841+92068                       263283.0000   263034.0000             0.09%
 164162 118458   263210.3333    16   263283.0000   263034.0000   352227    0.09%
Elapsed time = 11.25 sec. (12625.10 ticks, tree = 45.45 MB, solutions = 30)
 210159 153783   263270.0000     8   263283.0000   263034.0000   457924    0.09%
 210160 153784   263270.0000     8   263283.0000   263034.0000   457925    0.09%
 210161 153784   263270.0000     8   263283.0000   263034.0000   457926    0.09%
 210162 153784   263270.0000     8   263283.0000   263034.0000   457928    0.09%
 210163 153783        cutoff         263283.0000   263034.0000   457932    0.09%
 210164 153784   263113.0000    15   263283.0000   263034.0000   457941    0.09%
 210165 153785   263113.0000    14   263283.0000   263034.0000   457942    0.09%
 210166 153786   263113.0000    14   263283.0000   263034.0000   457944    0.09%
 210167 153787   263162.0000    12   263283.0000   263034.0000   457948    0.09%
 210168 153788   263162.0000    13   263283.0000   263034.0000   457953    0.09%
Elapsed time = 14.69 sec. (16440.47 ticks, tree = 60.09 MB, solutions = 30)
 256407 187749   263142.0000    13   263283.0000   263034.0000   565983    0.09%
 256408 187748        cutoff         263283.0000   263034.0000   565986    0.09%
 256409 187749   263142.0000    13   263283.0000   263034.0000   565987    0.09%
 256410 187748        cutoff         263283.0000   263034.0000   565989    0.09%
 256411 187749   263142.0000    13   263283.0000   263034.0000   565991    0.09%
 256412 187748    infeasible         263283.0000   263034.0000   565991    0.09%
 256413 187747        cutoff         263283.0000   263034.0000   565994    0.09%
 256414 187746        cutoff         263283.0000   263034.0000   566000    0.09%
 256415 187747   263048.9000    17   263283.0000   263034.0000   566007    0.09%
 256416 187748   263048.9000    18   263283.0000   263034.0000   566008    0.09%
Elapsed time = 18.14 sec. (20257.66 ticks, tree = 73.93 MB, solutions = 30)
*290988+160090                       263215.0000   263034.0000             0.07%
 298896 166236   263104.0000    11   263215.0000   263034.0000   666122    0.07%
 298897 166237   263104.0000    11   263215.0000   263034.0000   666123    0.07%
 298898 166238   263104.0000    13   263215.0000   263034.0000   666129    0.07%
 298899 166239   263104.0000    11   263215.0000   263034.0000   666136    0.07%
 298900 166238        cutoff         263215.0000   263034.0000   666139    0.07%
 298901 166237        cutoff         263215.0000   263034.0000   666143    0.07%
 298902 166238   263100.0000    14   263215.0000   263034.0000   666157    0.07%
 298903 166239   263100.0000    16   263215.0000   263034.0000   666161    0.07%
 298904 166240   263100.0000    16   263215.0000   263034.0000   666164    0.07%
 298905 166241   263100.0000    16   263215.0000   263034.0000   666168    0.07%
Elapsed time = 21.66 sec. (24074.91 ticks, tree = 67.15 MB, solutions = 31)
 335213 187792   263203.8333    13   263215.0000   263034.0000   756688    0.07%
 335214 187793   263203.8333    16   263215.0000   263034.0000   756691    0.07%
 335215 187792    infeasible         263215.0000   263034.0000   756691    0.07%
 335216 187791    infeasible         263215.0000   263034.0000   756691    0.07%
 335217 187790        cutoff         263215.0000   263034.0000   756698    0.07%
 335218 187789        cutoff         263215.0000   263034.0000   756699    0.07%
 335219 187790   263157.5000    14   263215.0000   263034.0000   756707    0.07%
 335220 187789        cutoff         263215.0000   263034.0000   756710    0.07%
 335221 187788    infeasible         263215.0000   263034.0000   756710    0.07%
 335222 187787        cutoff         263215.0000   263034.0000   756717    0.07%
Elapsed time = 25.19 sec. (27890.18 ticks, tree = 75.29 MB, solutions = 31)
 372734 209666   263101.0000    13   263215.0000   263034.0000   847135    0.07%
 372735 209667   263108.1429    14   263215.0000   263034.0000   847142    0.07%
 372736 209668   263108.1429    14   263215.0000   263034.0000   847144    0.07%
 372737 209669   263108.1429    14   263215.0000   263034.0000   847145    0.07%
 372738 209670   263108.1429    15   263215.0000   263034.0000   847150    0.07%
 372739 209671   263209.5000    13   263215.0000   263034.0000   847151    0.07%
 372740 209672   263209.5000    13   263215.0000   263034.0000   847152    0.07%
 372741 209673   263209.5000    13   263215.0000   263034.0000   847154    0.07%
 372742 209674   263209.5000    13   263215.0000   263034.0000   847156    0.07%
 372743 209675   263209.5000    13   263215.0000   263034.0000   847158    0.07%
Elapsed time = 28.73 sec. (31705.79 ticks, tree = 83.63 MB, solutions = 31)
 413722 237927   263099.3000    18   263215.0000   263034.0000   940900    0.07%
 413723 237928   263099.3000    18   263215.0000   263034.0000   940901    0.07%
 413724 237929   263099.3000    18   263215.0000   263034.0000   940902    0.07%
 413725 237930   263099.3000    18   263215.0000   263034.0000   940903    0.07%
 413726 237931   263099.3000    18   263215.0000   263034.0000   940905    0.07%
 413727 237930        cutoff         263215.0000   263034.0000   940910    0.07%
 413728 237929        cutoff         263215.0000   263034.0000   940914    0.07%
 413729 237930   263099.3000    18   263215.0000   263034.0000   940919    0.07%
 413730 237931   263099.3000    18   263215.0000   263034.0000   940921    0.07%
 413731 237932   263099.3000    17   263215.0000   263034.0000   940923    0.07%
Elapsed time = 32.23 sec. (35521.14 ticks, tree = 95.67 MB, solutions = 31)
 447400 259064        cutoff         263215.0000   263034.0000  1027126    0.07%
 447401 259065   263058.3000    16   263215.0000   263034.0000  1027127    0.07%
 447402 259064        cutoff         263215.0000   263034.0000  1027128    0.07%
 447403 259065   263062.4286    15   263215.0000   263034.0000  1027136    0.07%
 447404 259066   263062.4286    15   263215.0000   263034.0000  1027137    0.07%
 447405 259067   263093.0000    10   263215.0000   263034.0000  1027150    0.07%
 447406 259068   263093.0000    11   263215.0000   263034.0000  1027152    0.07%
 447407 259069   263093.0000    11   263215.0000   263034.0000  1027153    0.07%
 447408 259070   263093.0000    11   263215.0000   263034.0000  1027164    0.07%
 447409 259071   263093.0000    12   263215.0000   263034.0000  1027169    0.07%
Elapsed time = 35.81 sec. (39336.49 ticks, tree = 103.57 MB, solutions = 31)
 490130 288143   263115.8750    16   263215.0000   263034.0000  1131848    0.07%
 490131 288144   263115.8750    16   263215.0000   263034.0000  1131849    0.07%
 490132 288145   263115.8750    16   263215.0000   263034.0000  1131850    0.07%
 490133 288144        cutoff         263215.0000   263034.0000  1131852    0.07%
 490134 288143        cutoff         263215.0000   263034.0000  1131854    0.07%
 490135 288144   263034.0000    17   263215.0000   263034.0000  1131862    0.07%
 490136 288145   263034.0000    17   263215.0000   263034.0000  1131863    0.07%
 490137 288146   263034.0000    16   263215.0000   263034.0000  1131864    0.07%
 490138 288147   263034.0000    18   263215.0000   263034.0000  1131867    0.07%
 490139 288148   263051.4444    17   263215.0000   263034.0000  1131869    0.07%
Elapsed time = 39.30 sec. (43152.00 ticks, tree = 116.32 MB, solutions = 31)
 529123 311902   263034.0000    18   263215.0000   263034.0000  1234209    0.07%
 529124 311903   263034.0000    17   263215.0000   263034.0000  1234211    0.07%
 529125 311904   263034.0000    17   263215.0000   263034.0000  1234213    0.07%
 529126 311905   263034.0000    18   263215.0000   263034.0000  1234215    0.07%
 529127 311906   263034.0000    18   263215.0000   263034.0000  1234216    0.07%
 529128 311907   263151.8889    15   263215.0000   263034.0000  1234219    0.07%
 529129 311906        cutoff         263215.0000   263034.0000  1234221    0.07%
 529130 311907   263151.8889    16   263215.0000   263034.0000  1234227    0.07%
 529131 311908   263151.8889    15   263215.0000   263034.0000  1234229    0.07%
 529132 311907        cutoff         263215.0000   263034.0000  1234231    0.07%
Elapsed time = 42.79 sec. (46967.46 ticks, tree = 125.28 MB, solutions = 31)
 562029 332064   263096.6000    16   263215.0000   263034.0000  1320657    0.07%
 562030 332065   263096.6000    15   263215.0000   263034.0000  1320658    0.07%
 562031 332066   263096.6000    15   263215.0000   263034.0000  1320659    0.07%
 562032 332067   263096.6000    16   263215.0000   263034.0000  1320661    0.07%
 562033 332068   263096.6000    16   263215.0000   263034.0000  1320662    0.07%
 562034 332069   263112.2222    13   263215.0000   263034.0000  1320666    0.07%
 562035 332070   263112.2222    14   263215.0000   263034.0000  1320667    0.07%
 562036 332071   263114.1250    12   263215.0000   263034.0000  1320668    0.07%
 562037 332072   263114.1250    12   263215.0000   263034.0000  1320669    0.07%
 562038 332072   263114.1250    13   263215.0000   263034.0000  1320670    0.07%
Elapsed time = 46.35 sec. (50783.64 ticks, tree = 135.15 MB, solutions = 31)
 594122 350063   263046.1111    16   263215.0000   263034.0000  1406496    0.07%
 594123 350064   263046.1111    15   263215.0000   263034.0000  1406497    0.07%
 594124 350065   263145.0000    13   263215.0000   263034.0000  1406498    0.07%
 594125 350066   263145.0000    13   263215.0000   263034.0000  1406500    0.07%
 594126 350066   263145.0000    12   263215.0000   263034.0000  1406501    0.07%
 594127 350067   263145.0000    14   263215.0000   263034.0000  1406504    0.07%
 594128 350067   263145.0000    14   263215.0000   263034.0000  1406505    0.07%
 594129 350066        cutoff         263215.0000   263034.0000  1406507    0.07%
 594130 350067   263034.0000    17   263215.0000   263034.0000  1406512    0.07%
 594131 350068   263057.4000    18   263215.0000   263034.0000  1406517    0.07%
Elapsed time = 49.94 sec. (54600.83 ticks, tree = 142.03 MB, solutions = 31)
 632396 372912   263090.8889    17   263215.0000   263034.0000  1505626    0.07%
 632397 372913   263090.8889    17   263215.0000   263034.0000  1505628    0.07%
 632398 372912        cutoff         263215.0000   263034.0000  1505630    0.07%
 632399 372913   263097.0000    14   263215.0000   263034.0000  1505633    0.07%
 632400 372914   263097.0000    12   263215.0000   263034.0000  1505634    0.07%
 632401 372915   263097.0000    11   263215.0000   263034.0000  1505637    0.07%
 632402 372916   263097.0000    11   263215.0000   263034.0000  1505642    0.07%
 632403 372917   263097.0000    11   263215.0000   263034.0000  1505643    0.07%
 632404 372918   263097.0000    11   263215.0000   263034.0000  1505645    0.07%
 632405 372919   263097.0000    13   263215.0000   263034.0000  1505651    0.07%
Elapsed time = 53.34 sec. (58417.43 ticks, tree = 150.63 MB, solutions = 31)
 667927 395068   263034.0000    16   263215.0000   263034.0000  1591630    0.07%
 667928 395069   263086.7000    17   263215.0000   263034.0000  1591631    0.07%
 667929 395070   263192.8750    13   263215.0000   263034.0000  1591639    0.07%
 667930 395071   263192.8750    14   263215.0000   263034.0000  1591640    0.07%
 667931 395071   263192.8750    14   263215.0000   263034.0000  1591641    0.07%
 667932 395070        cutoff         263215.0000   263034.0000  1591643    0.07%
 667933 395071   263034.0000    14   263215.0000   263034.0000  1591647    0.07%
 667934 395072   263118.2500    15   263215.0000   263034.0000  1591655    0.07%
 667935 395073   263118.2500    16   263215.0000   263034.0000  1591656    0.07%
 667936 395074   263118.2500    15   263215.0000   263034.0000  1591657    0.07%
Elapsed time = 56.89 sec. (62233.73 ticks, tree = 161.71 MB, solutions = 31)
 702917 415185   263034.0000    15   263215.0000   263034.0000  1690700    0.07%
 702918 415186   263034.0000    15   263215.0000   263034.0000  1690702    0.07%
 702919 415187   263034.0000    16   263215.0000   263034.0000  1690705    0.07%
 702920 415188   263034.0000    17   263215.0000   263034.0000  1690708    0.07%
 702921 415189   263034.0000    17   263215.0000   263034.0000  1690711    0.07%
 702922 415189   263078.4444    16   263215.0000   263034.0000  1690717    0.07%
 702923 415190   263078.4444    16   263215.0000   263034.0000  1690718    0.07%
 702924 415191   263078.4444    16   263215.0000   263034.0000  1690719    0.07%
 702925 415192   263078.4444    16   263215.0000   263034.0000  1690721    0.07%
 702926 415193   263078.4444    16   263215.0000   263034.0000  1690722    0.07%
Elapsed time = 60.44 sec. (66049.48 ticks, tree = 169.46 MB, solutions = 31)
 738388 436316   263086.7000    18   263215.0000   263034.0000  1791551    0.07%
 738389 436317   263086.7000    17   263215.0000   263034.0000  1791553    0.07%
 738390 436318   263086.7000    17   263215.0000   263034.0000  1791554    0.07%
 738391 436319   263086.7000    17   263215.0000   263034.0000  1791556    0.07%
 738392 436320   263086.7000    17   263215.0000   263034.0000  1791557    0.07%
 738393 436321   263086.7000    17   263215.0000   263034.0000  1791558    0.07%
 738394 436322   263086.7000    17   263215.0000   263034.0000  1791559    0.07%
 738395 436323   263086.7000    16   263215.0000   263034.0000  1791560    0.07%
 738396 436324   263086.7000    17   263215.0000   263034.0000  1791567    0.07%
 738397 436325   263086.7000    17   263215.0000   263034.0000  1791568    0.07%
Elapsed time = 64.00 sec. (69893.66 ticks, tree = 177.55 MB, solutions = 31)
 774271 456633   263115.0000    15   263215.0000   263034.0000  1893162    0.07%
 774272 456634   263115.0000    16   263215.0000   263034.0000  1893164    0.07%
 774273 456635   263115.0000    16   263215.0000   263034.0000  1893166    0.07%
 774274 456636   263115.0000    16   263215.0000   263034.0000  1893167    0.07%
 774275 456637   263115.0000    16   263215.0000   263034.0000  1893168    0.07%
 774276 456638   263115.0000    16   263215.0000   263034.0000  1893169    0.07%
 774277 456639   263115.0000    16   263215.0000   263034.0000  1893170    0.07%
 774278 456640   263115.0000    14   263215.0000   263034.0000  1893171    0.07%
 774279 456641   263191.1429    12   263215.0000   263034.0000  1893177    0.07%
 774280 456642   263191.1429    13   263215.0000   263034.0000  1893178    0.07%
Elapsed time = 67.53 sec. (73709.14 ticks, tree = 185.32 MB, solutions = 31)
 809444 476798   263214.0000    14   263215.0000   263034.0000  1988986    0.07%
 809445 476799   263214.0000    16   263215.0000   263034.0000  1988989    0.07%
 809446 476799   263214.0000    16   263215.0000   263034.0000  1988991    0.07%
 809447 476798        cutoff         263215.0000   263034.0000  1988994    0.07%
 809448 476799   263054.3000    17   263215.0000   263034.0000  1989000    0.07%
 809449 476800   263175.2222    17   263215.0000   263034.0000  1989005    0.07%
 809450 476799        cutoff         263215.0000   263034.0000  1989008    0.07%
 809451 476799   263185.0000    14   263215.0000   263034.0000  1989009    0.07%
 809452 476798    infeasible         263215.0000   263034.0000  1989009    0.07%
 809453 476797        cutoff         263215.0000   263034.0000  1989013    0.07%
Elapsed time = 71.06 sec. (77525.51 ticks, tree = 196.27 MB, solutions = 31)
 845868 498628   263061.9000    18   263215.0000   263034.0000  2087542    0.07%
 845869 498629   263061.9000    18   263215.0000   263034.0000  2087543    0.07%
 845870 498628        cutoff         263215.0000   263034.0000  2087545    0.07%
 845871 498629   263061.9000    18   263215.0000   263034.0000  2087547    0.07%
 845872 498630   263061.9000    18   263215.0000   263034.0000  2087548    0.07%
 845873 498631   263061.9000    18   263215.0000   263034.0000  2087550    0.07%
 845874 498632   263061.9000    19   263215.0000   263034.0000  2087551    0.07%
 845875 498632   263137.2222    17   263215.0000   263034.0000  2087557    0.07%
 845876 498631        cutoff         263215.0000   263034.0000  2087561    0.07%
 845877 498631   263203.5556    17   263215.0000   263034.0000  2087566    0.07%
Elapsed time = 74.59 sec. (81341.13 ticks, tree = 204.62 MB, solutions = 31)
 884082 522097   263143.0000    14   263215.0000   263034.0000  2190156    0.07%
 884083 522098   263143.0000    14   263215.0000   263034.0000  2190157    0.07%
 884084 522099   263143.0000    14   263215.0000   263034.0000  2190158    0.07%
 884085 522100   263143.0000    14   263215.0000   263034.0000  2190159    0.07%
 884086 522101   263143.0000    15   263215.0000   263034.0000  2190162    0.07%
 884087 522102   263143.0000    12   263215.0000   263034.0000  2190165    0.07%
 884088 522101        cutoff         263215.0000   263034.0000  2190168    0.07%
 884089 522100        cutoff         263215.0000   263034.0000  2190171    0.07%
 884090 522099        cutoff         263215.0000   263034.0000  2190174    0.07%
 884091 522098        cutoff         263215.0000   263034.0000  2190179    0.07%
Elapsed time = 78.13 sec. (85156.46 ticks, tree = 213.49 MB, solutions = 31)
*917988+539120                       263213.0000   263034.0000             0.07%
 920234 540401   263034.0000    15   263213.0000   263034.0000  2286627    0.07%
 920235 540402   263034.0000    16   263213.0000   263034.0000  2286629    0.07%
 920236 540403   263034.0000    17   263213.0000   263034.0000  2286631    0.07%
 920237 540404   263034.0000    18   263213.0000   263034.0000  2286633    0.07%
 920238 540405   263034.0000    18   263213.0000   263034.0000  2286634    0.07%
 920239 540406   263055.6667    17   263213.0000   263034.0000  2286637    0.07%
 920240 540407   263055.6667    18   263213.0000   263034.0000  2286638    0.07%
 920241 540408   263055.6667    18   263213.0000   263034.0000  2286640    0.07%
 920242 540409   263055.6667    18   263213.0000   263034.0000  2286641    0.07%
 920243 540409   263055.6667    18   263213.0000   263034.0000  2286643    0.07%
Elapsed time = 81.63 sec. (88972.01 ticks, tree = 220.32 MB, solutions = 32)
 957392 562404   263034.0000    16   263213.0000   263034.0000  2384641    0.07%
 957393 562405   263034.0000    16   263213.0000   263034.0000  2384646    0.07%
 957394 562406   263034.0000    16   263213.0000   263034.0000  2384649    0.07%
 957395 562407   263034.0000    16   263213.0000   263034.0000  2384650    0.07%
 957396 562408   263034.0000    16   263213.0000   263034.0000  2384651    0.07%
 957397 562409   263034.0000    16   263213.0000   263034.0000  2384652    0.07%
 957398 562410   263034.0000    16   263213.0000   263034.0000  2384653    0.07%
 957399 562411   263034.0000    16   263213.0000   263034.0000  2384654    0.07%
 957400 562412   263034.0000    15   263213.0000   263034.0000  2384655    0.07%
 957401 562413   263034.0000    15   263213.0000   263034.0000  2384656    0.07%
Elapsed time = 85.15 sec. (92787.76 ticks, tree = 228.62 MB, solutions = 32)
 992942 583975   263078.4444    18   263213.0000   263034.0000  2479956    0.07%
 992943 583976   263181.8333    12   263213.0000   263034.0000  2479964    0.07%
 992944 583976   263181.8333    12   263213.0000   263034.0000  2479965    0.07%
 992945 583977   263181.8333    13   263213.0000   263034.0000  2479967    0.07%
 992946 583978   263181.8333    13   263213.0000   263034.0000  2479968    0.07%
 992947 583977    infeasible         263213.0000   263034.0000  2479968    0.07%
 992948 583976    infeasible         263213.0000   263034.0000  2479968    0.07%
 992949 583976   263081.3000    16   263213.0000   263034.0000  2479975    0.07%
 992950 583977   263081.3000    16   263213.0000   263034.0000  2479976    0.07%
 992951 583977   263081.3000    16   263213.0000   263034.0000  2479977    0.07%
Elapsed time = 88.69 sec. (96603.36 ticks, tree = 240.75 MB, solutions = 32)
 1017829 598555   263034.0000    16   263213.0000   263034.0000  2548872    0.07%
 1017830 598556   263034.0000    16   263213.0000   263034.0000  2548873    0.07%
 1017831 598557   263034.0000    16   263213.0000   263034.0000  2548875    0.07%
 1017832 598558   263034.0000    16   263213.0000   263034.0000  2548876    0.07%
 1017833 598559   263034.0000    16   263213.0000   263034.0000  2548878    0.07%
 1017834 598560   263034.0000    18   263213.0000   263034.0000  2548880    0.07%
 1017835 598561   263034.0000    18   263213.0000   263034.0000  2548881    0.07%
 1017836 598562   263072.9000    17   263213.0000   263034.0000  2548882    0.07%
 1017837 598561        cutoff         263213.0000   263034.0000  2548883    0.07%
 1017838 598562   263072.9000    18   263213.0000   263034.0000  2548884    0.07%
Elapsed time = 92.22 sec. (100419.66 ticks, tree = 246.27 MB, solutions = 32)
 1051937 617620   263161.0000    10   263213.0000   263034.0000  2646014    0.07%
 1051938 617619    infeasible         263213.0000   263034.0000  2646014    0.07%
 1051939 617618    infeasible         263213.0000   263034.0000  2646014    0.07%
 1051940 617619   263105.8889    16   263213.0000   263034.0000  2646028    0.07%
 1051941 617620   263105.8889    16   263213.0000   263034.0000  2646029    0.07%
 1051942 617621   263105.8889    16   263213.0000   263034.0000  2646030    0.07%
 1051943 617622   263105.8889    16   263213.0000   263034.0000  2646031    0.07%
 1051944 617623   263105.8889    16   263213.0000   263034.0000  2646032    0.07%
 1051945 617624   263105.8889    16   263213.0000   263034.0000  2646035    0.07%
 1051946 617623        cutoff         263213.0000   263034.0000  2646038    0.07%
Elapsed time = 95.77 sec. (104234.93 ticks, tree = 253.50 MB, solutions = 32)
*1062252 528392      integral     0   263180.0000   263034.0000  2675515    0.06%
 1088983 544776        cutoff         263180.0000   263034.0000  2748374    0.06%
 1088984 544775        cutoff         263180.0000   263034.0000  2748378    0.06%
 1088985 544776   263034.0000    17   263180.0000   263034.0000  2748386    0.06%
 1088986 544777   263092.5556    16   263180.0000   263034.0000  2748392    0.06%
 1088987 544778   263092.5556    16   263180.0000   263034.0000  2748393    0.06%
 1088988 544779   263092.5556    15   263180.0000   263034.0000  2748394    0.06%
 1088989 544779   263092.5556    16   263180.0000   263034.0000  2748395    0.06%
 1088990 544779   263150.0000    13   263180.0000   263034.0000  2748397    0.06%
 1088991 544778        cutoff         263180.0000   263034.0000  2748399    0.06%
 1088992 544779   263155.1000    17   263180.0000   263034.0000  2748412    0.06%
Elapsed time = 99.42 sec. (108051.40 ticks, tree = 225.55 MB, solutions = 33)

Cover cuts applied:  5

Root node processing (before b&c):
  Real time             =    0.09 sec. (105.80 ticks)
Sequential b&c:
  Real time             =   99.91 sec. (108744.68 ticks)
                          ------------
Total (root+branch&cut) =  100.00 sec. (108850.48 ticks)

Solution pool: 33 solutions saved.

MIP - Time limit exceeded, integer feasible:  Objective =  2.6318000000e+05
Current MIP best bound =  2.6303400000e+05 (gap = 146, 0.06%)
Solution time =  100.00 sec.  Iterations = 2765789  Nodes = 1094809 (548059)
Deterministic time = 108850.50 ticks  (1088.50 ticks/sec)


Incumbent solution written to file '/tmp/tmpKdxASB.cplex.sol'.
